9 16
10 6
14 16
8 16
7 19
13 16
15 15
12 19
7 6
8 16
10 9
13 15
5 16
11 20
13 10
12 4
7 3
15 13
8 6
8 11
7 15
15 19
10 3
15 3
7 4
13 16
5 17
6 10
8 14
11 8
8 17
6 11
13 3
7 10
5 5
9 13
9 4
15 19
12 18
5 10
13 12
13 4
9 5
13 15
11 4
11 13
5 3
13 20
11 9
11 8
13 18
7 11
15 11
10 14
9 10
8 14
11 20
11 18
6 18
7 9
8 16
15 16
15 4
14 12
11 18
5 14
12 15
14 6
11 6
9 15
7 19
15 5
6 19
5 16
5 12
11 15
14 17
14 14
9 7
12 4
15 6
13 10
15 20
8 8
7 9
7 10
9 6
13 10
7 15
15 18
5 6
14 6
6 13
11 14
12 9
5 11
15 3
7 20
14 14
13 17